peakDumbCharging = 37000; 
Machine = anon_enum(16); 
machineSpeed = [3700,3700,3700,3700,3700,3700,3700,3700,3700,3700,3700,3700,3700,3700,3700,3700]; 
machineLoad = [3700,3700,3700,3700,3700,3700,3700,3700,3700,3700,3700,3700,3700,3700,3700,3700]; 
Car = anon_enum(33); 
demandCar = [2800,6160,4120,7440,2840,9280,4320,1440,10840,7680,10880,4240,2440,32080,8040,13840,5200,16520,3160,7920,5120,14160,680,5720,27280,11920,7960,34880,33240,39560,4400,11360,9720]; 
arrivalCar = [74,72,71,70,69,69,68,67,67,67,65,62,61,60,60,58,57,57,43,40,37,37,37,37,36,35,34,32,31,26,23,23,23]; 
departureCar = [76,75,74,74,72,73,72,69,73,70,70,66,63,73,64,67,60,65,45,44,42,44,38,39,47,39,40,44,52,42,27,27,61]; 
